#p opt external="/home/pbeaujea/g2xtb_interface/interface.py -s h2o" nosymmetry

Title

0 1
7        0.000000000      0.000000000     -0.060374670
1       -0.961663690      0.000000000      0.279622198
1        0.480831845     -0.832825185      0.279622198
1        0.480831845      0.832825185      0.279622198




